ft/ft24.jss
24 24
2 1 0 3 1 6 3 7 5 3 4 6 10 2 15 12 16 8 19 4 20 21 21 14 22 13 23
1 8 2 5 4 10 5 10 0 10 3 4 9 1 7 11 2 17 6 18 12 19 15 20 16 22
2 5 3 4 5 8 0 9 1 1 4 7 14 3 16 4 19 5 20 0 21 6 22 15 23 9 25
1 5 0 5 2 5 3 3 4 8 5 9 16 0 19 1 24 2 25 3 26 5 27 7 28 11 29
2 9 1 3 4 5 5 4 0 3 3 1 25 2 28 3 29 0 30 1 32 4 33 8 34 11 36
1 3 3 3 5 9 0 10 4 4 2 1 20 1 23 3 25 6 26 7 27 12 28 16 30 17
2 11 1 8 4 15 5 14 0 16 3 17 22 0 23 2 26 5 27 7 29 12 30 15 31
1 15 0 13 2 11 3 12 4 10 5 10 24 1 25 3 28 7 30 8 32 14 33 18 35
2 7 1 7 3 6 4 8 5 5 0 6 8 2 10 4 11 6 13 10 14 11 15 17 16 19 17
1 18 0 18 2 18 4 20 5 15 3 16 27 0 28 2 30 4 32 6 34 7 35 13 37
2 6 1 7 3 9 5 5 0 6 4 7 12 3 13 5 14 9 15 11 16 17 17 20 19 21
1 11 0 11 2 13 4 15 5 10 3 11 29 1 30 3 32 5 34 7 36 13 38 18 40
2 10 1 9 3 12 5 8 0 9 4 10 15 3 17 5 18 8 20 10 21 16 23 21 24
1 9 0 9 2 10 4 11 5 8 3 9 32 1 34 3 36 5 38 8 40 9 42 14 44 19
2 13 1 10 3 14 4 12 5 10 0 11 19 4 21 5 23 8 24 10 26 17 27 22 29
1 7 0 7 2 9 3 11 5 7 4 8 35 2 36 4 38 7 40 9 42 15 44 20 46 23
2 14 1 12 3 17 4 15 0 16 5 10 20 5 22 7 24 9 26 11 27 18 29 23 30
1 12 0 11 2 13 3 15 4 13 5 12 36 3 38 5 40 7 42 10 44 16 46 22 47
2 11 1 12 4 14 5 13 0 14 3 16 22 6 23 8 26 10 27 12 29 19 31 24 33
1 6 0 7 2 9 3 10 4 10 5 10 38 4 40 6 42 8 44 11 46 17 48 22 50 25
2 10 1 13 3 12 4 14 5 13 0 14 24 7 26 10 28 12 30 13 32 20 33 25 34
1 9 0 8 2 8 4 10 3 9 5 10 41 3 42 5 44 8 46 13 48 19 50 24 51 27
