Sequencial/FT24
Job 0 on Machine 0: Completion Time = 0
Job 0 on Machine 1: Completion Time = 0
Job 0 on Machine 2: Completion Time = 0
Job 0 on Machine 3: Completion Time = 0
Job 0 on Machine 4: Completion Time = 3
Job 0 on Machine 5: Completion Time = 0
Job 0 on Machine 6: Completion Time = 0
Job 0 on Machine 7: Completion Time = 0
Job 0 on Machine 8: Completion Time = 0
Job 0 on Machine 9: Completion Time = 4
Job 0 on Machine 10: Completion Time = 0
Job 0 on Machine 11: Completion Time = 0
Job 0 on Machine 12: Completion Time = 0
Job 0 on Machine 13: Completion Time = 0
Job 0 on Machine 14: Completion Time = 0
Job 0 on Machine 15: Completion Time = 0
Job 0 on Machine 16: Completion Time = 0
Job 0 on Machine 17: Completion Time = 0
Job 0 on Machine 18: Completion Time = 0
Job 0 on Machine 19: Completion Time = 0
Job 0 on Machine 20: Completion Time = 0
Job 0 on Machine 21: Completion Time = 2
Job 0 on Machine 22: Completion Time = 0
Job 0 on Machine 23: Completion Time = 0
Job 1 on Machine 0: Completion Time = 0
Job 1 on Machine 1: Completion Time = 0
Job 1 on Machine 2: Completion Time = 0
Job 1 on Machine 3: Completion Time = 0
Job 1 on Machine 4: Completion Time = 0
Job 1 on Machine 5: Completion Time = 0
Job 1 on Machine 6: Completion Time = 0
Job 1 on Machine 7: Completion Time = 0
Job 1 on Machine 8: Completion Time = 0
Job 1 on Machine 9: Completion Time = 0
Job 1 on Machine 10: Completion Time = 0
Job 1 on Machine 11: Completion Time = 0
Job 1 on Machine 12: Completion Time = 0
Job 1 on Machine 13: Completion Time = 22
Job 1 on Machine 14: Completion Time = 0
Job 1 on Machine 15: Completion Time = 0
Job 1 on Machine 16: Completion Time = 0
Job 1 on Machine 17: Completion Time = 0
Job 1 on Machine 18: Completion Time = 0
Job 1 on Machine 19: Completion Time = 0
Job 1 on Machine 20: Completion Time = 0
Job 1 on Machine 21: Completion Time = 0
Job 1 on Machine 22: Completion Time = 0
Job 1 on Machine 23: Completion Time = 1
Job 2 on Machine 0: Completion Time = 0
Job 2 on Machine 1: Completion Time = 0
Job 2 on Machine 2: Completion Time = 0
Job 2 on Machine 3: Completion Time = 0
Job 2 on Machine 4: Completion Time = 0
Job 2 on Machine 5: Completion Time = 0
Job 2 on Machine 6: Completion Time = 0
Job 2 on Machine 7: Completion Time = 0
Job 2 on Machine 8: Completion Time = 0
Job 2 on Machine 9: Completion Time = 0
Job 2 on Machine 10: Completion Time = 0
Job 2 on Machine 11: Completion Time = 0
Job 2 on Machine 12: Completion Time = 0
Job 2 on Machine 13: Completion Time = 0
Job 2 on Machine 14: Completion Time = 0
Job 2 on Machine 15: Completion Time = 0
Job 2 on Machine 16: Completion Time = 0
Job 2 on Machine 17: Completion Time = 0
Job 2 on Machine 18: Completion Time = 0
Job 2 on Machine 19: Completion Time = 0
Job 2 on Machine 20: Completion Time = 0
Job 2 on Machine 21: Completion Time = 0
Job 2 on Machine 22: Completion Time = 0
Job 2 on Machine 23: Completion Time = 0
Job 3 on Machine 0: Completion Time = 0
Job 3 on Machine 1: Completion Time = 1
Job 3 on Machine 2: Completion Time = 0
Job 3 on Machine 3: Completion Time = 0
Job 3 on Machine 4: Completion Time = 0
Job 3 on Machine 5: Completion Time = 0
Job 3 on Machine 6: Completion Time = 0
Job 3 on Machine 7: Completion Time = 0
Job 3 on Machine 8: Completion Time = 0
Job 3 on Machine 9: Completion Time = 0
Job 3 on Machine 10: Completion Time = 0
Job 3 on Machine 11: Completion Time = 0
Job 3 on Machine 12: Completion Time = 0
Job 3 on Machine 13: Completion Time = 0
Job 3 on Machine 14: Completion Time = 0
Job 3 on Machine 15: Completion Time = 0
Job 3 on Machine 16: Completion Time = 0
Job 3 on Machine 17: Completion Time = 0
Job 3 on Machine 18: Completion Time = 0
Job 3 on Machine 19: Completion Time = 0
Job 3 on Machine 20: Completion Time = 0
Job 3 on Machine 21: Completion Time = 0
Job 3 on Machine 22: Completion Time = 2
Job 3 on Machine 23: Completion Time = 0
Job 4 on Machine 0: Completion Time = 0
Job 4 on Machine 1: Completion Time = 0
Job 4 on Machine 2: Completion Time = 0
Job 4 on Machine 3: Completion Time = 0
Job 4 on Machine 4: Completion Time = 0
Job 4 on Machine 5: Completion Time = 0
Job 4 on Machine 6: Completion Time = 0
Job 4 on Machine 7: Completion Time = 0
Job 4 on Machine 8: Completion Time = 0
Job 4 on Machine 9: Completion Time = 0
Job 4 on Machine 10: Completion Time = 0
Job 4 on Machine 11: Completion Time = 0
Job 4 on Machine 12: Completion Time = 0
Job 4 on Machine 13: Completion Time = 0
Job 4 on Machine 14: Completion Time = 0
Job 4 on Machine 15: Completion Time = 0
Job 4 on Machine 16: Completion Time = 0
Job 4 on Machine 17: Completion Time = 0
Job 4 on Machine 18: Completion Time = 0
Job 4 on Machine 19: Completion Time = 0
Job 4 on Machine 20: Completion Time = 0
Job 4 on Machine 21: Completion Time = 0
Job 4 on Machine 22: Completion Time = 1
Job 4 on Machine 23: Completion Time = 1
Job 5 on Machine 0: Completion Time = 2
Job 5 on Machine 1: Completion Time = 0
Job 5 on Machine 2: Completion Time = 0
Job 5 on Machine 3: Completion Time = 0
Job 5 on Machine 4: Completion Time = 0
Job 5 on Machine 5: Completion Time = 0
Job 5 on Machine 6: Completion Time = 0
Job 5 on Machine 7: Completion Time = 0
Job 5 on Machine 8: Completion Time = 34
Job 5 on Machine 9: Completion Time = 0
Job 5 on Machine 10: Completion Time = 0
Job 5 on Machine 11: Completion Time = 0
Job 5 on Machine 12: Completion Time = 0
Job 5 on Machine 13: Completion Time = 0
Job 5 on Machine 14: Completion Time = 0
Job 5 on Machine 15: Completion Time = 0
Job 5 on Machine 16: Completion Time = 0
Job 5 on Machine 17: Completion Time = 3
Job 5 on Machine 18: Completion Time = 0
Job 5 on Machine 19: Completion Time = 0
Job 5 on Machine 20: Completion Time = 0
Job 5 on Machine 21: Completion Time = 0
Job 5 on Machine 22: Completion Time = 0
Job 5 on Machine 23: Completion Time = 0
Job 6 on Machine 0: Completion Time = 0
Job 6 on Machine 1: Completion Time = 0
Job 6 on Machine 2: Completion Time = 0
Job 6 on Machine 3: Completion Time = 0
Job 6 on Machine 4: Completion Time = 0
Job 6 on Machine 5: Completion Time = 0
Job 6 on Machine 6: Completion Time = 0
Job 6 on Machine 7: Completion Time = 0
Job 6 on Machine 8: Completion Time = 0
Job 6 on Machine 9: Completion Time = 0
Job 6 on Machine 10: Completion Time = 0
Job 6 on Machine 11: Completion Time = 0
Job 6 on Machine 12: Completion Time = 0
Job 6 on Machine 13: Completion Time = 0
Job 6 on Machine 14: Completion Time = 0
Job 6 on Machine 15: Completion Time = 0
Job 6 on Machine 16: Completion Time = 0
Job 6 on Machine 17: Completion Time = 0
Job 6 on Machine 18: Completion Time = 0
Job 6 on Machine 19: Completion Time = 0
Job 6 on Machine 20: Completion Time = 0
Job 6 on Machine 21: Completion Time = 0
Job 6 on Machine 22: Completion Time = 0
Job 6 on Machine 23: Completion Time = 0
Job 7 on Machine 0: Completion Time = 0
Job 7 on Machine 1: Completion Time = 0
Job 7 on Machine 2: Completion Time = 0
Job 7 on Machine 3: Completion Time = 0
Job 7 on Machine 4: Completion Time = 0
Job 7 on Machine 5: Completion Time = 0
Job 7 on Machine 6: Completion Time = 0
Job 7 on Machine 7: Completion Time = 0
Job 7 on Machine 8: Completion Time = 0
Job 7 on Machine 9: Completion Time = 0
Job 7 on Machine 10: Completion Time = 0
Job 7 on Machine 11: Completion Time = 0
Job 7 on Machine 12: Completion Time = 0
Job 7 on Machine 13: Completion Time = 0
Job 7 on Machine 14: Completion Time = 0
Job 7 on Machine 15: Completion Time = 0
Job 7 on Machine 16: Completion Time = 0
Job 7 on Machine 17: Completion Time = 0
Job 7 on Machine 18: Completion Time = 0
Job 7 on Machine 19: Completion Time = 0
Job 7 on Machine 20: Completion Time = 0
Job 7 on Machine 21: Completion Time = 5
Job 7 on Machine 22: Completion Time = 0
Job 7 on Machine 23: Completion Time = 0
Job 8 on Machine 0: Completion Time = 0
Job 8 on Machine 1: Completion Time = 0
Job 8 on Machine 2: Completion Time = 0
Job 8 on Machine 3: Completion Time = 0
Job 8 on Machine 4: Completion Time = 0
Job 8 on Machine 5: Completion Time = 0
Job 8 on Machine 6: Completion Time = 0
Job 8 on Machine 7: Completion Time = 0
Job 8 on Machine 8: Completion Time = 0
Job 8 on Machine 9: Completion Time = 0
Job 8 on Machine 10: Completion Time = 0
Job 8 on Machine 11: Completion Time = 0
Job 8 on Machine 12: Completion Time = 0
Job 8 on Machine 13: Completion Time = 0
Job 8 on Machine 14: Completion Time = 0
Job 8 on Machine 15: Completion Time = 0
Job 8 on Machine 16: Completion Time = 1
Job 8 on Machine 17: Completion Time = 0
Job 8 on Machine 18: Completion Time = 4
Job 8 on Machine 19: Completion Time = 0
Job 8 on Machine 20: Completion Time = 5
Job 8 on Machine 21: Completion Time = 0
Job 8 on Machine 22: Completion Time = 0
Job 8 on Machine 23: Completion Time = 0
Job 9 on Machine 0: Completion Time = 0
Job 9 on Machine 1: Completion Time = 0
Job 9 on Machine 2: Completion Time = 0
Job 9 on Machine 3: Completion Time = 0
Job 9 on Machine 4: Completion Time = 0
Job 9 on Machine 5: Completion Time = 0
Job 9 on Machine 6: Completion Time = 0
Job 9 on Machine 7: Completion Time = 0
Job 9 on Machine 8: Completion Time = 0
Job 9 on Machine 9: Completion Time = 0
Job 9 on Machine 10: Completion Time = 0
Job 9 on Machine 11: Completion Time = 0
Job 9 on Machine 12: Completion Time = 0
Job 9 on Machine 13: Completion Time = 0
Job 9 on Machine 14: Completion Time = 0
Job 9 on Machine 15: Completion Time = 0
Job 9 on Machine 16: Completion Time = 0
Job 9 on Machine 17: Completion Time = 1
Job 9 on Machine 18: Completion Time = 0
Job 9 on Machine 19: Completion Time = 0
Job 9 on Machine 20: Completion Time = 0
Job 9 on Machine 21: Completion Time = 0
Job 9 on Machine 22: Completion Time = 0
Job 9 on Machine 23: Completion Time = 23
Job 10 on Machine 0: Completion Time = 0
Job 10 on Machine 1: Completion Time = 0
Job 10 on Machine 2: Completion Time = 0
Job 10 on Machine 3: Completion Time = 0
Job 10 on Machine 4: Completion Time = 0
Job 10 on Machine 5: Completion Time = 0
Job 10 on Machine 6: Completion Time = 0
Job 10 on Machine 7: Completion Time = 0
Job 10 on Machine 8: Completion Time = 0
Job 10 on Machine 9: Completion Time = 0
Job 10 on Machine 10: Completion Time = 0
Job 10 on Machine 11: Completion Time = 0
Job 10 on Machine 12: Completion Time = 0
Job 10 on Machine 13: Completion Time = 0
Job 10 on Machine 14: Completion Time = 0
Job 10 on Machine 15: Completion Time = 0
Job 10 on Machine 16: Completion Time = 0
Job 10 on Machine 17: Completion Time = 0
Job 10 on Machine 18: Completion Time = 0
Job 10 on Machine 19: Completion Time = 0
Job 10 on Machine 20: Completion Time = 0
Job 10 on Machine 21: Completion Time = 0
Job 10 on Machine 22: Completion Time = 0
Job 10 on Machine 23: Completion Time = 0
Job 11 on Machine 0: Completion Time = 0
Job 11 on Machine 1: Completion Time = 0
Job 11 on Machine 2: Completion Time = 0
Job 11 on Machine 3: Completion Time = 0
Job 11 on Machine 4: Completion Time = 0
Job 11 on Machine 5: Completion Time = 0
Job 11 on Machine 6: Completion Time = 0
Job 11 on Machine 7: Completion Time = 0
Job 11 on Machine 8: Completion Time = 0
Job 11 on Machine 9: Completion Time = 0
Job 11 on Machine 10: Completion Time = 0
Job 11 on Machine 11: Completion Time = 0
Job 11 on Machine 12: Completion Time = 0
Job 11 on Machine 13: Completion Time = 0
Job 11 on Machine 14: Completion Time = 0
Job 11 on Machine 15: Completion Time = 0
Job 11 on Machine 16: Completion Time = 0
Job 11 on Machine 17: Completion Time = 0
Job 11 on Machine 18: Completion Time = 0
Job 11 on Machine 19: Completion Time = 0
Job 11 on Machine 20: Completion Time = 0
Job 11 on Machine 21: Completion Time = 0
Job 11 on Machine 22: Completion Time = 0
Job 11 on Machine 23: Completion Time = 0
Job 12 on Machine 0: Completion Time = 0
Job 12 on Machine 1: Completion Time = 0
Job 12 on Machine 2: Completion Time = 0
Job 12 on Machine 3: Completion Time = 0
Job 12 on Machine 4: Completion Time = 0
Job 12 on Machine 5: Completion Time = 0
Job 12 on Machine 6: Completion Time = 0
Job 12 on Machine 7: Completion Time = 0
Job 12 on Machine 8: Completion Time = 0
Job 12 on Machine 9: Completion Time = 0
Job 12 on Machine 10: Completion Time = 0
Job 12 on Machine 11: Completion Time = 0
Job 12 on Machine 12: Completion Time = 0
Job 12 on Machine 13: Completion Time = 0
Job 12 on Machine 14: Completion Time = 0
Job 12 on Machine 15: Completion Time = 0
Job 12 on Machine 16: Completion Time = 0
Job 12 on Machine 17: Completion Time = 0
Job 12 on Machine 18: Completion Time = 0
Job 12 on Machine 19: Completion Time = 0
Job 12 on Machine 20: Completion Time = 0
Job 12 on Machine 21: Completion Time = 0
Job 12 on Machine 22: Completion Time = 0
Job 12 on Machine 23: Completion Time = 0
Job 13 on Machine 0: Completion Time = 0
Job 13 on Machine 1: Completion Time = 0
Job 13 on Machine 2: Completion Time = 0
Job 13 on Machine 3: Completion Time = 0
Job 13 on Machine 4: Completion Time = 0
Job 13 on Machine 5: Completion Time = 0
Job 13 on Machine 6: Completion Time = 0
Job 13 on Machine 7: Completion Time = 0
Job 13 on Machine 8: Completion Time = 0
Job 13 on Machine 9: Completion Time = 0
Job 13 on Machine 10: Completion Time = 0
Job 13 on Machine 11: Completion Time = 0
Job 13 on Machine 12: Completion Time = 0
Job 13 on Machine 13: Completion Time = 0
Job 13 on Machine 14: Completion Time = 0
Job 13 on Machine 15: Completion Time = 0
Job 13 on Machine 16: Completion Time = 0
Job 13 on Machine 17: Completion Time = 0
Job 13 on Machine 18: Completion Time = 0
Job 13 on Machine 19: Completion Time = 0
Job 13 on Machine 20: Completion Time = 0
Job 13 on Machine 21: Completion Time = 0
Job 13 on Machine 22: Completion Time = 0
Job 13 on Machine 23: Completion Time = 0
Job 14 on Machine 0: Completion Time = 0
Job 14 on Machine 1: Completion Time = 0
Job 14 on Machine 2: Completion Time = 0
Job 14 on Machine 3: Completion Time = 0
Job 14 on Machine 4: Completion Time = 0
Job 14 on Machine 5: Completion Time = 0
Job 14 on Machine 6: Completion Time = 0
Job 14 on Machine 7: Completion Time = 0
Job 14 on Machine 8: Completion Time = 0
Job 14 on Machine 9: Completion Time = 0
Job 14 on Machine 10: Completion Time = 0
Job 14 on Machine 11: Completion Time = 0
Job 14 on Machine 12: Completion Time = 0
Job 14 on Machine 13: Completion Time = 0
Job 14 on Machine 14: Completion Time = 0
Job 14 on Machine 15: Completion Time = 0
Job 14 on Machine 16: Completion Time = 0
Job 14 on Machine 17: Completion Time = 0
Job 14 on Machine 18: Completion Time = 0
Job 14 on Machine 19: Completion Time = 0
Job 14 on Machine 20: Completion Time = 0
Job 14 on Machine 21: Completion Time = 0
Job 14 on Machine 22: Completion Time = 0
Job 14 on Machine 23: Completion Time = 0
Job 15 on Machine 0: Completion Time = 0
Job 15 on Machine 1: Completion Time = 0
Job 15 on Machine 2: Completion Time = 0
Job 15 on Machine 3: Completion Time = 0
Job 15 on Machine 4: Completion Time = 0
Job 15 on Machine 5: Completion Time = 0
Job 15 on Machine 6: Completion Time = 0
Job 15 on Machine 7: Completion Time = 0
Job 15 on Machine 8: Completion Time = 0
Job 15 on Machine 9: Completion Time = 0
Job 15 on Machine 10: Completion Time = 0
Job 15 on Machine 11: Completion Time = 0
Job 15 on Machine 12: Completion Time = 0
Job 15 on Machine 13: Completion Time = 0
Job 15 on Machine 14: Completion Time = 0
Job 15 on Machine 15: Completion Time = 0
Job 15 on Machine 16: Completion Time = 0
Job 15 on Machine 17: Completion Time = 0
Job 15 on Machine 18: Completion Time = 0
Job 15 on Machine 19: Completion Time = 0
Job 15 on Machine 20: Completion Time = 0
Job 15 on Machine 21: Completion Time = 0
Job 15 on Machine 22: Completion Time = 0
Job 15 on Machine 23: Completion Time = 0
Job 16 on Machine 0: Completion Time = 0
Job 16 on Machine 1: Completion Time = 0
Job 16 on Machine 2: Completion Time = 0
Job 16 on Machine 3: Completion Time = 0
Job 16 on Machine 4: Completion Time = 0
Job 16 on Machine 5: Completion Time = 0
Job 16 on Machine 6: Completion Time = 0
Job 16 on Machine 7: Completion Time = 0
Job 16 on Machine 8: Completion Time = 0
Job 16 on Machine 9: Completion Time = 0
Job 16 on Machine 10: Completion Time = 0
Job 16 on Machine 11: Completion Time = 0
Job 16 on Machine 12: Completion Time = 0
Job 16 on Machine 13: Completion Time = 0
Job 16 on Machine 14: Completion Time = 0
Job 16 on Machine 15: Completion Time = 0
Job 16 on Machine 16: Completion Time = 0
Job 16 on Machine 17: Completion Time = 0
Job 16 on Machine 18: Completion Time = 0
Job 16 on Machine 19: Completion Time = 0
Job 16 on Machine 20: Completion Time = 0
Job 16 on Machine 21: Completion Time = 0
Job 16 on Machine 22: Completion Time = 0
Job 16 on Machine 23: Completion Time = 0
Job 17 on Machine 0: Completion Time = 0
Job 17 on Machine 1: Completion Time = 0
Job 17 on Machine 2: Completion Time = 0
Job 17 on Machine 3: Completion Time = 0
Job 17 on Machine 4: Completion Time = 0
Job 17 on Machine 5: Completion Time = 0
Job 17 on Machine 6: Completion Time = 0
Job 17 on Machine 7: Completion Time = 0
Job 17 on Machine 8: Completion Time = 0
Job 17 on Machine 9: Completion Time = 0
Job 17 on Machine 10: Completion Time = 0
Job 17 on Machine 11: Completion Time = 0
Job 17 on Machine 12: Completion Time = 0
Job 17 on Machine 13: Completion Time = 0
Job 17 on Machine 14: Completion Time = 0
Job 17 on Machine 15: Completion Time = 0
Job 17 on Machine 16: Completion Time = 0
Job 17 on Machine 17: Completion Time = 0
Job 17 on Machine 18: Completion Time = 0
Job 17 on Machine 19: Completion Time = 0
Job 17 on Machine 20: Completion Time = 0
Job 17 on Machine 21: Completion Time = 0
Job 17 on Machine 22: Completion Time = 0
Job 17 on Machine 23: Completion Time = 0
Job 18 on Machine 0: Completion Time = 0
Job 18 on Machine 1: Completion Time = 0
Job 18 on Machine 2: Completion Time = 0
Job 18 on Machine 3: Completion Time = 0
Job 18 on Machine 4: Completion Time = 0
Job 18 on Machine 5: Completion Time = 0
Job 18 on Machine 6: Completion Time = 0
Job 18 on Machine 7: Completion Time = 0
Job 18 on Machine 8: Completion Time = 0
Job 18 on Machine 9: Completion Time = 0
Job 18 on Machine 10: Completion Time = 0
Job 18 on Machine 11: Completion Time = 0
Job 18 on Machine 12: Completion Time = 0
Job 18 on Machine 13: Completion Time = 0
Job 18 on Machine 14: Completion Time = 0
Job 18 on Machine 15: Completion Time = 0
Job 18 on Machine 16: Completion Time = 0
Job 18 on Machine 17: Completion Time = 0
Job 18 on Machine 18: Completion Time = 0
Job 18 on Machine 19: Completion Time = 0
Job 18 on Machine 20: Completion Time = 0
Job 18 on Machine 21: Completion Time = 0
Job 18 on Machine 22: Completion Time = 0
Job 18 on Machine 23: Completion Time = 0
Job 19 on Machine 0: Completion Time = 0
Job 19 on Machine 1: Completion Time = 0
Job 19 on Machine 2: Completion Time = 0
Job 19 on Machine 3: Completion Time = 0
Job 19 on Machine 4: Completion Time = 0
Job 19 on Machine 5: Completion Time = 0
Job 19 on Machine 6: Completion Time = 0
Job 19 on Machine 7: Completion Time = 0
Job 19 on Machine 8: Completion Time = 0
Job 19 on Machine 9: Completion Time = 0
Job 19 on Machine 10: Completion Time = 0
Job 19 on Machine 11: Completion Time = 0
Job 19 on Machine 12: Completion Time = 0
Job 19 on Machine 13: Completion Time = 0
Job 19 on Machine 14: Completion Time = 0
Job 19 on Machine 15: Completion Time = 0
Job 19 on Machine 16: Completion Time = 0
Job 19 on Machine 17: Completion Time = 0
Job 19 on Machine 18: Completion Time = 0
Job 19 on Machine 19: Completion Time = 0
Job 19 on Machine 20: Completion Time = 0
Job 19 on Machine 21: Completion Time = 0
Job 19 on Machine 22: Completion Time = 0
Job 19 on Machine 23: Completion Time = 0
Job 20 on Machine 0: Completion Time = 0
Job 20 on Machine 1: Completion Time = 0
Job 20 on Machine 2: Completion Time = 0
Job 20 on Machine 3: Completion Time = 0
Job 20 on Machine 4: Completion Time = 0
Job 20 on Machine 5: Completion Time = 0
Job 20 on Machine 6: Completion Time = 0
Job 20 on Machine 7: Completion Time = 0
Job 20 on Machine 8: Completion Time = 0
Job 20 on Machine 9: Completion Time = 0
Job 20 on Machine 10: Completion Time = 0
Job 20 on Machine 11: Completion Time = 0
Job 20 on Machine 12: Completion Time = 0
Job 20 on Machine 13: Completion Time = 0
Job 20 on Machine 14: Completion Time = 0
Job 20 on Machine 15: Completion Time = 0
Job 20 on Machine 16: Completion Time = 0
Job 20 on Machine 17: Completion Time = 0
Job 20 on Machine 18: Completion Time = 0
Job 20 on Machine 19: Completion Time = 0
Job 20 on Machine 20: Completion Time = 0
Job 20 on Machine 21: Completion Time = 0
Job 20 on Machine 22: Completion Time = 0
Job 20 on Machine 23: Completion Time = 0
Job 21 on Machine 0: Completion Time = 0
Job 21 on Machine 1: Completion Time = 0
Job 21 on Machine 2: Completion Time = 0
Job 21 on Machine 3: Completion Time = 0
Job 21 on Machine 4: Completion Time = 0
Job 21 on Machine 5: Completion Time = 0
Job 21 on Machine 6: Completion Time = 0
Job 21 on Machine 7: Completion Time = 0
Job 21 on Machine 8: Completion Time = 0
Job 21 on Machine 9: Completion Time = 0
Job 21 on Machine 10: Completion Time = 0
Job 21 on Machine 11: Completion Time = 0
Job 21 on Machine 12: Completion Time = 0
Job 21 on Machine 13: Completion Time = 0
Job 21 on Machine 14: Completion Time = 0
Job 21 on Machine 15: Completion Time = 0
Job 21 on Machine 16: Completion Time = 0
Job 21 on Machine 17: Completion Time = 0
Job 21 on Machine 18: Completion Time = 0
Job 21 on Machine 19: Completion Time = 0
Job 21 on Machine 20: Completion Time = 0
Job 21 on Machine 21: Completion Time = 0
Job 21 on Machine 22: Completion Time = 0
Job 21 on Machine 23: Completion Time = 0
Job 22 on Machine 0: Completion Time = 0
Job 22 on Machine 1: Completion Time = 0
Job 22 on Machine 2: Completion Time = 0
Job 22 on Machine 3: Completion Time = 0
Job 22 on Machine 4: Completion Time = 0
Job 22 on Machine 5: Completion Time = 0
Job 22 on Machine 6: Completion Time = 0
Job 22 on Machine 7: Completion Time = 0
Job 22 on Machine 8: Completion Time = 0
Job 22 on Machine 9: Completion Time = 0
Job 22 on Machine 10: Completion Time = 0
Job 22 on Machine 11: Completion Time = 0
Job 22 on Machine 12: Completion Time = 0
Job 22 on Machine 13: Completion Time = 0
Job 22 on Machine 14: Completion Time = 0
Job 22 on Machine 15: Completion Time = 0
Job 22 on Machine 16: Completion Time = 0
Job 22 on Machine 17: Completion Time = 0
Job 22 on Machine 18: Completion Time = 0
Job 22 on Machine 19: Completion Time = 0
Job 22 on Machine 20: Completion Time = 0
Job 22 on Machine 21: Completion Time = 0
Job 22 on Machine 22: Completion Time = 0
Job 22 on Machine 23: Completion Time = 0
Job 23 on Machine 0: Completion Time = 0
Job 23 on Machine 1: Completion Time = 0
Job 23 on Machine 2: Completion Time = 0
Job 23 on Machine 3: Completion Time = 0
Job 23 on Machine 4: Completion Time = 0
Job 23 on Machine 5: Completion Time = 0
Job 23 on Machine 6: Completion Time = 0
Job 23 on Machine 7: Completion Time = 0
Job 23 on Machine 8: Completion Time = 0
Job 23 on Machine 9: Completion Time = 0
Job 23 on Machine 10: Completion Time = 0
Job 23 on Machine 11: Completion Time = 0
Job 23 on Machine 12: Completion Time = 0
Job 23 on Machine 13: Completion Time = 0
Job 23 on Machine 14: Completion Time = 0
Job 23 on Machine 15: Completion Time = 0
Job 23 on Machine 16: Completion Time = 0
Job 23 on Machine 17: Completion Time = 0
Job 23 on Machine 18: Completion Time = 0
Job 23 on Machine 19: Completion Time = 0
Job 23 on Machine 20: Completion Time = 0
Job 23 on Machine 21: Completion Time = 0
Job 23 on Machine 22: Completion Time = 0
Job 23 on Machine 23: Completion Time = 0
Execution time: 13.429450 seconds
